40
1 0 21
2 0 33
2 1 40
3 0 22
3 1 9
3 2 4
4 0 38
4 1 37
4 2 13
4 3 19
5 0 2
5 1 19
5 2 33
5 3 21
5 4 15
6 0 36
6 1 31
6 2 36
6 3 13
6 4 26
6 5 9
7 0 18
7 1 36
7 2 7
7 3 12
7 4 6
7 5 37
7 6 9
8 0 30
8 1 27
8 2 16
8 3 14
8 4 10
8 5 2
8 6 23
8 7 31
9 0 13
9 1 14
9 2 22
9 3 21
9 4 10
9 5 33
9 6 12
9 7 7
9 8 36
10 0 30
10 1 26
10 2 33
10 3 1
10 4 31
10 5 11
10 6 10
10 7 17
10 8 27
10 9 2
11 0 40
11 1 9
11 2 33
11 3 11
11 4 3
11 5 3
11 6 30
11 7 15
11 8 28
11 9 33
11 10 19
12 0 15
12 1 35
12 2 14
12 3 25
12 4 4
12 5 1
12 6 15
12 7 19
12 8 1
12 9 31
12 10 11
12 11 28
13 0 39
13 1 29
13 2 31
13 3 30
13 4 18
13 5 40
13 6 15
13 7 36
13 8 35
13 9 17
13 10 8
13 11 6
13 12 21
14 0 38
14 1 35
14 2 9
14 3 17
14 4 31
14 5 7
14 6 27
14 7 34
14 8 36
14 9 29
14 10 35
14 11 3
14 12 20
14 13 2
15 0 7
15 1 16
15 2 6
15 3 30
15 4 21
15 5 38
15 6 18
15 7 24
15 8 26
15 9 11
15 10 13
15 11 26
15 12 3
15 13 8
15 14 19
16 0 35
16 1 7
16 2 5
16 3 34
16 4 2
16 5 19
16 6 1
16 7 11
16 8 15
16 9 9
16 10 23
16 11 18
16 12 22
16 13 1
16 14 10
16 15 7
17 0 9
17 1 28
17 2 16
17 3 4
17 4 32
17 5 38
17 6 23
17 7 32
17 8 2
17 9 15
17 10 27
17 11 34
17 12 16
17 13 7
17 14 17
17 15 33
17 16 18
18 0 1
18 1 28
18 2 5
18 3 2
18 4 20
18 5 16
18 6 13
18 7 15
18 8 36
18 9 35
18 10 36
18 11 17
18 12 5
18 13 13
18 14 18
18 15 7
18 16 5
18 17 13
19 0 15
19 1 8
19 2 10
19 3 38
19 4 23
19 5 15
19 6 6
19 7 20
19 8 18
19 9 2
19 10 10
19 11 8
19 12 39
19 13 6
19 14 6
19 15 19
19 16 30
19 17 20
19 18 39
20 0 8
20 1 29
20 2 26
20 3 35
20 4 18
20 5 21
20 6 1
20 7 15
20 8 24
20 9 7
20 10 2
20 11 35
20 12 24
20 13 39
20 14 34
20 15 20
20 16 37
20 17 31
20 18 5
20 19 21
21 0 16
21 1 21
21 2 36
21 3 30
21 4 5
21 5 16
21 6 37
21 7 21
21 8 6
21 9 19
21 10 34
21 11 15
21 12 5
21 13 40
21 14 32
21 15 28
21 16 40
21 17 23
21 18 29
21 19 16
21 20 25
22 0 31
22 1 22
22 2 35
22 3 13
22 4 7
22 5 6
22 6 28
22 7 32
22 8 30
22 9 37
22 10 29
22 11 15
22 12 3
22 13 36
22 14 23
22 15 16
22 16 28
22 17 8
22 18 25
22 19 16
22 20 37
22 21 40
23 0 12
23 1 29
23 2 23
23 3 11
23 4 28
23 5 39
23 6 23
23 7 15
23 8 17
23 9 35
23 10 15
23 11 26
23 12 33
23 13 38
23 14 30
23 15 38
23 16 39
23 17 36
23 18 15
23 19 37
23 20 26
23 21 19
23 22 34
24 0 6
24 1 8
24 2 16
24 3 32
24 4 16
24 5 31
24 6 25
24 7 32
24 8 40
24 9 15
24 10 34
24 11 1
24 12 38
24 13 38
24 14 7
24 15 12
24 16 32
24 17 13
24 18 14
24 19 37
24 20 6
24 21 7
24 22 38
24 23 5
25 0 38
25 1 26
25 2 14
25 3 5
25 4 26
25 5 4
25 6 16
25 7 21
25 8 25
25 9 38
25 10 18
25 11 3
25 12 26
25 13 10
25 14 22
25 15 2
25 16 30
25 17 28
25 18 17
25 19 4
25 20 35
25 21 21
25 22 15
25 23 6
25 24 23
26 0 33
26 1 13
26 2 20
26 3 20
26 4 20
26 5 20
26 6 20
26 7 22
26 8 19
26 9 22
26 10 15
26 11 23
26 12 38
26 13 8
26 14 37
26 15 36
26 16 4
26 17 15
26 18 19
26 19 20
26 20 14
26 21 38
26 22 37
26 23 22
26 24 29
26 25 5
27 0 40
27 1 33
27 2 25
27 3 4
27 4 5
27 5 26
27 6 29
27 7 35
27 8 12
27 9 8
27 10 17
27 11 3
27 12 3
27 13 17
27 14 30
27 15 3
27 16 16
27 17 31
27 18 9
27 19 38
27 20 3
27 21 28
27 22 38
27 23 10
27 24 30
27 25 20
27 26 26
28 0 8
28 1 12
28 2 32
28 3 24
28 4 38
28 5 18
28 6 4
28 7 26
28 8 4
28 9 2
28 10 38
28 11 40
28 12 27
28 13 33
28 14 30
28 15 40
28 16 7
28 17 4
28 18 5
28 19 19
28 20 2
28 21 27
28 22 23
28 23 14
28 24 13
28 25 15
28 26 25
28 27 5
29 0 39
29 1 22
29 2 36
29 3 5
29 4 2
29 5 28
29 6 28
29 7 11
29 8 38
29 9 36
29 10 40
29 11 23
29 12 6
29 13 29
29 14 4
29 15 35
29 16 23
29 17 8
29 18 2
29 19 26
29 20 37
29 21 6
29 22 35
29 23 23
29 24 3
29 25 37
29 26 10
29 27 10
29 28 15
30 0 33
30 1 30
30 2 24
30 3 39
30 4 25
30 5 9
30 6 11
30 7 7
30 8 19
30 9 33
30 10 25
30 11 33
30 12 26
30 13 27
30 14 34
30 15 29
30 16 5
30 17 4
30 18 6
30 19 9
30 20 2
30 21 9
30 22 20
30 23 30
30 24 7
30 25 5
30 26 37
30 27 28
30 28 12
30 29 27
31 0 22
31 1 2
31 2 5
31 3 14
31 4 39
31 5 34
31 6 36
31 7 2
31 8 14
31 9 36
31 10 39
31 11 36
31 12 26
31 13 27
31 14 40
31 15 24
31 16 30
31 17 19
31 18 20
31 19 36
31 20 10
31 21 34
31 22 38
31 23 9
31 24 19
31 25 1
31 26 30
31 27 7
31 28 26
31 29 5
31 30 23
32 0 35
32 1 27
32 2 39
32 3 34
32 4 19
32 5 21
32 6 2
32 7 30
32 8 25
32 9 18
32 10 33
32 11 31
32 12 12
32 13 23
32 14 21
32 15 20
32 16 14
32 17 17
32 18 3
32 19 19
32 20 4
32 21 15
32 22 30
32 23 13
32 24 18
32 25 15
32 26 30
32 27 7
32 28 37
32 29 8
32 30 36
32 31 11
33 0 36
33 1 2
33 2 40
33 3 23
33 4 28
33 5 18
33 6 19
33 7 2
33 8 18
33 9 27
33 10 21
33 11 27
33 12 35
33 13 4
33 14 4
33 15 38
33 16 10
33 17 3
33 18 33
33 19 16
33 20 25
33 21 28
33 22 4
33 23 33
33 24 18
33 25 7
33 26 8
33 27 24
33 28 21
33 29 20
33 30 23
33 31 34
33 32 9
34 0 7
34 1 40
34 2 3
34 3 28
34 4 37
34 5 7
34 6 17
34 7 40
34 8 14
34 9 6
34 10 1
34 11 17
34 12 17
34 13 15
34 14 28
34 15 38
34 16 5
34 17 8
34 18 12
34 19 13
34 20 21
34 21 20
34 22 12
34 23 22
34 24 2
34 25 23
34 26 11
34 27 38
34 28 5
34 29 12
34 30 32
34 31 24
34 32 38
34 33 13
35 0 20
35 1 38
35 2 16
35 3 40
35 4 13
35 5 17
35 6 5
35 7 4
35 8 29
35 9 21
35 10 22
35 11 14
35 12 28
35 13 7
35 14 17
35 15 27
35 16 5
35 17 28
35 18 14
35 19 30
35 20 3
35 21 22
35 22 25
35 23 27
35 24 26
35 25 30
35 26 19
35 27 20
35 28 35
35 29 26
35 30 27
35 31 25
35 32 16
35 33 14
35 34 22
36 0 12
36 1 8
36 2 2
36 3 3
36 4 28
36 5 21
36 6 3
36 7 14
36 8 23
36 9 31
36 10 13
36 11 11
36 12 11
36 13 38
36 14 20
36 15 9
36 16 13
36 17 2
36 18 14
36 19 3
36 20 19
36 21 20
36 22 24
36 23 36
36 24 23
36 25 6
36 26 18
36 27 11
36 28 20
36 29 3
36 30 37
36 31 27
36 32 17
36 33 28
36 34 10
36 35 1
37 0 33
37 1 3
37 2 1
37 3 27
37 4 38
37 5 24
37 6 5
37 7 29
37 8 10
37 9 40
37 10 16
37 11 26
37 12 9
37 13 36
37 14 24
37 15 13
37 16 37
37 17 6
37 18 2
37 19 37
37 20 20
37 21 12
37 22 12
37 23 15
37 24 2
37 25 22
37 26 18
37 27 28
37 28 25
37 29 31
37 30 36
37 31 22
37 32 23
37 33 6
37 34 37
37 35 27
37 36 10
38 0 2
38 1 13
38 2 25
38 3 30
38 4 37
38 5 28
38 6 39
38 7 20
38 8 7
38 9 14
38 10 7
38 11 19
38 12 23
38 13 7
38 14 10
38 15 23
38 16 26
38 17 14
38 18 26
38 19 24
38 20 35
38 21 5
38 22 12
38 23 19
38 24 35
38 25 5
38 26 8
38 27 38
38 28 29
38 29 30
38 30 31
38 31 33
38 32 11
38 33 14
38 34 35
38 35 18
38 36 38
38 37 35
39 0 15
39 1 39
39 2 20
39 3 31
39 4 17
39 5 32
39 6 24
39 7 8
39 8 4
39 9 37
39 10 16
39 11 7
39 12 28
39 13 14
39 14 8
39 15 6
39 16 9
39 17 27
39 18 3
39 19 1
39 20 25
39 21 19
39 22 10
39 23 14
39 24 38
39 25 14
39 26 31
39 27 37
39 28 19
39 29 9
39 30 37
39 31 15
39 32 3
39 33 35
39 34 28
39 35 30
39 36 5
39 37 18
39 38 2
